p cnf 200 1110
-101 -20 0
-101 -25 0
-101 -2 0
-101 1 0
-101 -12 0
-101 67 0
-101 73 0
-101 -11 0
-101 -48 0
-101 -16 0
101 20 25 2 -1 12 -67 -73 11 48 16 0
-102 91 0
-102 5 0
-102 -26 0
-102 -49 0
-102 -34 0
-102 86 0
-102 -65 0
-102 -38 0
-102 15 0
-102 98 0
102 -91 -5 26 49 34 -86 65 38 -15 -98 0
-103 45 0
-103 77 0
-103 70 0
-103 8 0
-103 75 0
-103 -85 0
-103 -1 0
-103 53 0
-103 90 0
-103 66 0
103 -45 -77 -70 -8 -75 85 1 -53 -90 -66 0
-104 53 0
-104 -63 0
-104 83 0
-104 7 0
-104 -46 0
-104 86 0
-104 -97 0
-104 -82 0
-104 87 0
-104 34 0
104 -53 63 -83 -7 46 -86 97 82 -87 -34 0
-105 -29 0
-105 -66 0
-105 -75 0
-105 -10 0
-105 -79 0
-105 81 0
-105 9 0
-105 -14 0
-105 -86 0
-105 42 0
105 29 66 75 10 79 -81 -9 14 86 -42 0
-106 76 0
-106 -18 0
-106 24 0
-106 92 0
-106 35 0
-106 52 0
-106 -15 0
-106 -40 0
-106 -42 0
-106 97 0
106 -76 18 -24 -92 -35 -52 15 40 42 -97 0
-107 -1 0
-107 -99 0
-107 -50 0
-107 -80 0
-107 60 0
-107 -9 0
-107 -48 0
-107 61 0
-107 62 0
-107 -74 0
107 1 99 50 80 -60 9 48 -61 -62 74 0
-108 -42 0
-108 27 0
-108 -33 0
-108 24 0
-108 -96 0
-108 -38 0
-108 63 0
-108 74 0
-108 -93 0
-108 77 0
108 42 -27 33 -24 96 38 -63 -74 93 -77 0
-109 -75 0
-109 -30 0
-109 23 0
-109 -100 0
-109 18 0
-109 40 0
-109 61 0
-109 27 0
-109 -67 0
-109 80 0
109 75 30 -23 100 -18 -40 -61 -27 67 -80 0
-110 -4 0
-110 68 0
-110 59 0
-110 -15 0
-110 -28 0
-110 24 0
-110 53 0
-110 23 0
-110 3 0
-110 42 0
110 4 -68 -59 15 28 -24 -53 -23 -3 -42 0
101 102 103 104 105 106 107 108 109 110 0
-111 -99 0
-111 -71 0
-111 81 0
-111 -27 0
-111 -49 0
-111 3 0
-111 50 0
-111 -46 0
-111 69 0
-111 -40 0
111 99 71 -81 27 49 -3 -50 46 -69 40 0
-112 63 0
-112 -70 0
-112 -54 0
-112 82 0
-112 -52 0
-112 -56 0
-112 76 0
-112 27 0
-112 3 0
-112 91 0
112 -63 70 54 -82 52 56 -76 -27 -3 -91 0
-113 -19 0
-113 43 0
-113 16 0
-113 94 0
-113 -81 0
-113 55 0
-113 26 0
-113 -93 0
-113 -3 0
-113 10 0
113 19 -43 -16 -94 81 -55 -26 93 3 -10 0
-114 31 0
-114 -72 0
-114 75 0
-114 94 0
-114 63 0
-114 90 0
-114 -24 0
-114 44 0
-114 13 0
-114 58 0
114 -31 72 -75 -94 -63 -90 24 -44 -13 -58 0
-115 -80 0
-115 3 0
-115 -73 0
-115 81 0
-115 16 0
-115 8 0
-115 -91 0
-115 -94 0
-115 -60 0
-115 53 0
115 80 -3 73 -81 -16 -8 91 94 60 -53 0
-116 90 0
-116 -36 0
-116 76 0
-116 -100 0
-116 -74 0
-116 -72 0
-116 3 0
-116 16 0
-116 -92 0
-116 99 0
116 -90 36 -76 100 74 72 -3 -16 92 -99 0
-117 -27 0
-117 84 0
-117 -49 0
-117 -7 0
-117 22 0
-117 90 0
-117 19 0
-117 -42 0
-117 -98 0
-117 -81 0
117 27 -84 49 7 -22 -90 -19 42 98 81 0
-118 86 0
-118 25 0
-118 74 0
-118 30 0
-118 3 0
-118 18 0
-118 14 0
-118 58 0
-118 9 0
-118 94 0
118 -86 -25 -74 -30 -3 -18 -14 -58 -9 -94 0
-119 -78 0
-119 6 0
-119 90 0
-119 -16 0
-119 95 0
-119 -77 0
-119 -45 0
-119 39 0
-119 -8 0
-119 -13 0
119 78 -6 -90 16 -95 77 45 -39 8 13 0
-120 -51 0
-120 7 0
-120 -6 0
-120 -34 0
-120 -81 0
-120 -36 0
-120 -84 0
-120 49 0
-120 63 0
-120 -29 0
120 51 -7 6 34 81 36 84 -49 -63 29 0
111 112 113 114 115 116 117 118 119 120 0
-121 -57 0
-121 -90 0
-121 -27 0
-121 -37 0
-121 8 0
-121 18 0
-121 -99 0
-121 -69 0
-121 -77 0
-121 80 0
121 57 90 27 37 -8 -18 99 69 77 -80 0
-122 -75 0
-122 33 0
-122 -54 0
-122 2 0
-122 -94 0
-122 15 0
-122 93 0
-122 95 0
-122 24 0
-122 80 0
122 75 -33 54 -2 94 -15 -93 -95 -24 -80 0
-123 60 0
-123 58 0
-123 -94 0
-123 43 0
-123 -80 0
-123 -72 0
-123 -65 0
-123 -84 0
-123 -89 0
-123 49 0
123 -60 -58 94 -43 80 72 65 84 89 -49 0
-124 58 0
-124 -24 0
-124 11 0
-124 47 0
-124 10 0
-124 43 0
-124 74 0
-124 -45 0
-124 -32 0
-124 -57 0
124 -58 24 -11 -47 -10 -43 -74 45 32 57 0
-125 -47 0
-125 -21 0
-125 -54 0
-125 -88 0
-125 -72 0
-125 -18 0
-125 -71 0
-125 93 0
-125 75 0
-125 -46 0
125 47 21 54 88 72 18 71 -93 -75 46 0
-126 -75 0
-126 -70 0
-126 -35 0
-126 -41 0
-126 89 0
-126 -80 0
-126 -13 0
-126 95 0
-126 -32 0
-126 -98 0
126 75 70 35 41 -89 80 13 -95 32 98 0
-127 -28 0
-127 41 0
-127 -9 0
-127 -67 0
-127 77 0
-127 72 0
-127 -35 0
-127 84 0
-127 -99 0
-127 -24 0
127 28 -41 9 67 -77 -72 35 -84 99 24 0
-128 13 0
-128 8 0
-128 92 0
-128 46 0
-128 29 0
-128 -77 0
-128 -24 0
-128 10 0
-128 -97 0
-128 21 0
128 -13 -8 -92 -46 -29 77 24 -10 97 -21 0
-129 -45 0
-129 21 0
-129 60 0
-129 5 0
-129 -65 0
-129 68 0
-129 -69 0
-129 -88 0
-129 -17 0
-129 18 0
129 45 -21 -60 -5 65 -68 69 88 17 -18 0
-130 68 0
-130 22 0
-130 -42 0
-130 69 0
-130 -74 0
-130 -89 0
-130 -82 0
-130 58 0
-130 -48 0
-130 -90 0
130 -68 -22 42 -69 74 89 82 -58 48 90 0
121 122 123 124 125 126 127 128 129 130 0
-131 -30 0
-131 82 0
-131 14 0
-131 -75 0
-131 15 0
-131 44 0
-131 -49 0
-131 -61 0
-131 28 0
-131 -93 0
131 30 -82 -14 75 -15 -44 49 61 -28 93 0
-132 87 0
-132 6 0
-132 61 0
-132 -90 0
-132 1 0
-132 -56 0
-132 75 0
-132 -86 0
-132 26 0
-132 -37 0
132 -87 -6 -61 90 -1 56 -75 86 -26 37 0
-133 -5 0
-133 -79 0
-133 -88 0
-133 -46 0
-133 60 0
-133 -9 0
-133 87 0
-133 -100 0
-133 99 0
-133 -93 0
133 5 79 88 46 -60 9 -87 100 -99 93 0
-134 3 0
-134 77 0
-134 79 0
-134 87 0
-134 -16 0
-134 11 0
-134 71 0
-134 -48 0
-134 44 0
-134 28 0
134 -3 -77 -79 -87 16 -11 -71 48 -44 -28 0
-135 65 0
-135 -39 0
-135 37 0
-135 -44 0
-135 -35 0
-135 83 0
-135 74 0
-135 -2 0
-135 50 0
-135 43 0
135 -65 39 -37 44 35 -83 -74 2 -50 -43 0
-136 -74 0
-136 -59 0
-136 57 0
-136 89 0
-136 -1 0
-136 4 0
-136 63 0
-136 -75 0
-136 -52 0
-136 79 0
136 74 59 -57 -89 1 -4 -63 75 52 -79 0
-137 -8 0
-137 -77 0
-137 -36 0
-137 58 0
-137 -55 0
-137 80 0
-137 11 0
-137 -70 0
-137 -47 0
-137 -99 0
137 8 77 36 -58 55 -80 -11 70 47 99 0
-138 -37 0
-138 -21 0
-138 13 0
-138 -22 0
-138 20 0
-138 9 0
-138 -39 0
-138 17 0
-138 73 0
-138 78 0
138 37 21 -13 22 -20 -9 39 -17 -73 -78 0
-139 72 0
-139 65 0
-139 -20 0
-139 -70 0
-139 77 0
-139 95 0
-139 -82 0
-139 -32 0
-139 -24 0
-139 86 0
139 -72 -65 20 70 -77 -95 82 32 24 -86 0
-140 -38 0
-140 9 0
-140 88 0
-140 44 0
-140 -79 0
-140 -41 0
-140 51 0
-140 -5 0
-140 -20 0
-140 -7 0
140 38 -9 -88 -44 79 41 -51 5 20 7 0
131 132 133 134 135 136 137 138 139 140 0
-141 -75 0
-141 63 0
-141 -15 0
-141 96 0
-141 68 0
-141 69 0
-141 -3 0
-141 24 0
-141 -9 0
-141 90 0
141 75 -63 15 -96 -68 -69 3 -24 9 -90 0
-142 4 0
-142 -9 0
-142 -38 0
-142 -80 0
-142 64 0
-142 54 0
-142 -83 0
-142 61 0
-142 -23 0
-142 -7 0
142 -4 9 38 80 -64 -54 83 -61 23 7 0
-143 68 0
-143 -37 0
-143 82 0
-143 80 0
-143 10 0
-143 -69 0
-143 -98 0
-143 24 0
-143 -95 0
-143 -60 0
143 -68 37 -82 -80 -10 69 98 -24 95 60 0
-144 13 0
-144 79 0
-144 1 0
-144 -62 0
-144 -4 0
-144 97 0
-144 82 0
-144 -7 0
-144 -31 0
-144 -27 0
144 -13 -79 -1 62 4 -97 -82 7 31 27 0
-145 5 0
-145 -48 0
-145 -4 0
-145 -92 0
-145 79 0
-145 -85 0
-145 -71 0
-145 50 0
-145 -7 0
-145 -68 0
145 -5 48 4 92 -79 85 71 -50 7 68 0
-146 -38 0
-146 56 0
-146 -98 0
-146 88 0
-146 34 0
-146 87 0
-146 11 0
-146 -94 0
-146 -24 0
-146 37 0
146 38 -56 98 -88 -34 -87 -11 94 24 -37 0
-147 60 0
-147 32 0
-147 -41 0
-147 34 0
-147 -98 0
-147 -56 0
-147 58 0
-147 7 0
-147 -48 0
-147 -88 0
147 -60 -32 41 -34 98 56 -58 -7 48 88 0
-148 52 0
-148 -81 0
-148 76 0
-148 -5 0
-148 -12 0
-148 62 0
-148 24 0
-148 35 0
-148 -11 0
-148 -88 0
148 -52 81 -76 5 12 -62 -24 -35 11 88 0
-149 -73 0
-149 50 0
-149 43 0
-149 8 0
-149 -79 0
-149 48 0
-149 12 0
-149 -99 0
-149 -95 0
-149 55 0
149 73 -50 -43 -8 79 -48 -12 99 95 -55 0
-150 -47 0
-150 -100 0
-150 32 0
-150 -31 0
-150 -34 0
-150 52 0
-150 -78 0
-150 -62 0
-150 -61 0
-150 -51 0
150 47 100 -32 31 34 -52 78 62 61 51 0
141 142 143 144 145 146 147 148 149 150 0
-151 1 0
-151 55 0
-151 -98 0
-151 7 0
-151 -22 0
-151 73 0
-151 63 0
-151 -100 0
-151 90 0
-151 -13 0
151 -1 -55 98 -7 22 -73 -63 100 -90 13 0
-152 -8 0
-152 -81 0
-152 -31 0
-152 -83 0
-152 -96 0
-152 35 0
-152 -15 0
-152 56 0
-152 71 0
-152 -61 0
152 8 81 31 83 96 -35 15 -56 -71 61 0
-153 -16 0
-153 -88 0
-153 67 0
-153 -55 0
-153 64 0
-153 -31 0
-153 -11 0
-153 -95 0
-153 33 0
-153 -15 0
153 16 88 -67 55 -64 31 11 95 -33 15 0
-154 -95 0
-154 80 0
-154 -37 0
-154 63 0
-154 -17 0
-154 89 0
-154 -51 0
-154 -13 0
-154 61 0
-154 34 0
154 95 -80 37 -63 17 -89 51 13 -61 -34 0
-155 -36 0
-155 -45 0
-155 70 0
-155 -59 0
-155 99 0
-155 39 0
-155 62 0
-155 -34 0
-155 84 0
-155 76 0
155 36 45 -70 59 -99 -39 -62 34 -84 -76 0
-156 73 0
-156 -84 0
-156 -36 0
-156 70 0
-156 94 0
-156 -48 0
-156 23 0
-156 -31 0
-156 -72 0
-156 -43 0
156 -73 84 36 -70 -94 48 -23 31 72 43 0
-157 -52 0
-157 33 0
-157 -94 0
-157 2 0
-157 -29 0
-157 24 0
-157 -22 0
-157 -26 0
-157 7 0
-157 1 0
157 52 -33 94 -2 29 -24 22 26 -7 -1 0
-158 -97 0
-158 34 0
-158 -9 0
-158 37 0
-158 -1 0
-158 75 0
-158 -74 0
-158 -79 0
-158 73 0
-158 35 0
158 97 -34 9 -37 1 -75 74 79 -73 -35 0
-159 25 0
-159 -81 0
-159 -56 0
-159 34 0
-159 20 0
-159 -68 0
-159 14 0
-159 -44 0
-159 -42 0
-159 -62 0
159 -25 81 56 -34 -20 68 -14 44 42 62 0
-160 -1 0
-160 -24 0
-160 7 0
-160 -23 0
-160 61 0
-160 58 0
-160 35 0
-160 -33 0
-160 44 0
-160 41 0
160 1 24 -7 23 -61 -58 -35 33 -44 -41 0
151 152 153 154 155 156 157 158 159 160 0
-161 74 0
-161 -65 0
-161 81 0
-161 18 0
-161 -95 0
-161 92 0
-161 55 0
-161 27 0
-161 -89 0
-161 -22 0
161 -74 65 -81 -18 95 -92 -55 -27 89 22 0
-162 22 0
-162 -85 0
-162 -69 0
-162 -21 0
-162 3 0
-162 -18 0
-162 -57 0
-162 -62 0
-162 86 0
-162 16 0
162 -22 85 69 21 -3 18 57 62 -86 -16 0
-163 84 0
-163 -69 0
-163 45 0
-163 28 0
-163 -83 0
-163 -9 0
-163 10 0
-163 71 0
-163 70 0
-163 -91 0
163 -84 69 -45 -28 83 9 -10 -71 -70 91 0
-164 -8 0
-164 4 0
-164 -41 0
-164 2 0
-164 61 0
-164 32 0
-164 95 0
-164 22 0
-164 58 0
-164 -92 0
164 8 -4 41 -2 -61 -32 -95 -22 -58 92 0
-165 61 0
-165 -67 0
-165 -81 0
-165 -34 0
-165 -83 0
-165 -70 0
-165 -1 0
-165 88 0
-165 9 0
-165 -68 0
165 -61 67 81 34 83 70 1 -88 -9 68 0
-166 77 0
-166 -95 0
-166 39 0
-166 -73 0
-166 -65 0
-166 40 0
-166 -53 0
-166 -42 0
-166 -43 0
-166 74 0
166 -77 95 -39 73 65 -40 53 42 43 -74 0
-167 32 0
-167 -30 0
-167 10 0
-167 85 0
-167 -66 0
-167 -1 0
-167 86 0
-167 4 0
-167 81 0
-167 -95 0
167 -32 30 -10 -85 66 1 -86 -4 -81 95 0
-168 -10 0
-168 -40 0
-168 21 0
-168 29 0
-168 36 0
-168 30 0
-168 56 0
-168 -87 0
-168 92 0
-168 52 0
168 10 40 -21 -29 -36 -30 -56 87 -92 -52 0
-169 49 0
-169 -87 0
-169 -5 0
-169 -48 0
-169 -33 0
-169 -100 0
-169 -77 0
-169 67 0
-169 31 0
-169 51 0
169 -49 87 5 48 33 100 77 -67 -31 -51 0
-170 13 0
-170 87 0
-170 72 0
-170 46 0
-170 42 0
-170 25 0
-170 7 0
-170 83 0
-170 -44 0
-170 -74 0
170 -13 -87 -72 -46 -42 -25 -7 -83 44 74 0
161 162 163 164 165 166 167 168 169 170 0
-171 -88 0
-171 12 0
-171 80 0
-171 -94 0
-171 5 0
-171 59 0
-171 -57 0
-171 82 0
-171 -37 0
-171 87 0
171 88 -12 -80 94 -5 -59 57 -82 37 -87 0
-172 54 0
-172 100 0
-172 93 0
-172 9 0
-172 77 0
-172 76 0
-172 19 0
-172 16 0
-172 6 0
-172 -39 0
172 -54 -100 -93 -9 -77 -76 -19 -16 -6 39 0
-173 79 0
-173 75 0
-173 32 0
-173 65 0
-173 68 0
-173 12 0
-173 -86 0
-173 -66 0
-173 51 0
-173 -74 0
173 -79 -75 -32 -65 -68 -12 86 66 -51 74 0
-174 -7 0
-174 13 0
-174 -36 0
-174 75 0
-174 26 0
-174 14 0
-174 -18 0
-174 62 0
-174 90 0
-174 -5 0
174 7 -13 36 -75 -26 -14 18 -62 -90 5 0
-175 -83 0
-175 78 0
-175 -94 0
-175 -39 0
-175 -89 0
-175 -28 0
-175 53 0
-175 -84 0
-175 -17 0
-175 -4 0
175 83 -78 94 39 89 28 -53 84 17 4 0
-176 -82 0
-176 27 0
-176 67 0
-176 28 0
-176 -9 0
-176 -32 0
-176 -80 0
-176 23 0
-176 -60 0
-176 -58 0
176 82 -27 -67 -28 9 32 80 -23 60 58 0
-177 38 0
-177 91 0
-177 -87 0
-177 -20 0
-177 -27 0
-177 23 0
-177 48 0
-177 -47 0
-177 -22 0
-177 5 0
177 -38 -91 87 20 27 -23 -48 47 22 -5 0
-178 -91 0
-178 70 0
-178 8 0
-178 -80 0
-178 -42 0
-178 65 0
-178 -71 0
-178 19 0
-178 -30 0
-178 -54 0
178 91 -70 -8 80 42 -65 71 -19 30 54 0
-179 -30 0
-179 72 0
-179 -43 0
-179 -94 0
-179 -31 0
-179 25 0
-179 -15 0
-179 -4 0
-179 -98 0
-179 -45 0
179 30 -72 43 94 31 -25 15 4 98 45 0
-180 100 0
-180 -56 0
-180 -28 0
-180 4 0
-180 57 0
-180 -69 0
-180 -98 0
-180 62 0
-180 -64 0
-180 -83 0
180 -100 56 28 -4 -57 69 98 -62 64 83 0
171 172 173 174 175 176 177 178 179 180 0
-181 -18 0
-181 -31 0
-181 38 0
-181 -24 0
-181 -100 0
-181 -89 0
-181 96 0
-181 23 0
-181 -20 0
-181 11 0
181 18 31 -38 24 100 89 -96 -23 20 -11 0
-182 93 0
-182 30 0
-182 97 0
-182 -31 0
-182 86 0
-182 -59 0
-182 65 0
-182 98 0
-182 89 0
-182 -63 0
182 -93 -30 -97 31 -86 59 -65 -98 -89 63 0
-183 -7 0
-183 100 0
-183 45 0
-183 -35 0
-183 23 0
-183 65 0
-183 -89 0
-183 -74 0
-183 16 0
-183 -84 0
183 7 -100 -45 35 -23 -65 89 74 -16 84 0
-184 -50 0
-184 -29 0
-184 -41 0
-184 -74 0
-184 -8 0
-184 -76 0
-184 87 0
-184 -54 0
-184 24 0
-184 71 0
184 50 29 41 74 8 76 -87 54 -24 -71 0
-185 80 0
-185 -88 0
-185 -89 0
-185 10 0
-185 75 0
-185 37 0
-185 -46 0
-185 -20 0
-185 77 0
-185 96 0
185 -80 88 89 -10 -75 -37 46 20 -77 -96 0
-186 89 0
-186 -8 0
-186 -41 0
-186 100 0
-186 90 0
-186 -67 0
-186 36 0
-186 87 0
-186 72 0
-186 19 0
186 -89 8 41 -100 -90 67 -36 -87 -72 -19 0
-187 94 0
-187 -11 0
-187 58 0
-187 -96 0
-187 -38 0
-187 81 0
-187 55 0
-187 -95 0
-187 89 0
-187 88 0
187 -94 11 -58 96 38 -81 -55 95 -89 -88 0
-188 -10 0
-188 -78 0
-188 -67 0
-188 70 0
-188 66 0
-188 -53 0
-188 12 0
-188 -75 0
-188 11 0
-188 -19 0
188 10 78 67 -70 -66 53 -12 75 -11 19 0
-189 4 0
-189 23 0
-189 -62 0
-189 68 0
-189 -75 0
-189 92 0
-189 84 0
-189 -80 0
-189 -73 0
-189 13 0
189 -4 -23 62 -68 75 -92 -84 80 73 -13 0
-190 75 0
-190 -3 0
-190 -74 0
-190 60 0
-190 59 0
-190 78 0
-190 55 0
-190 -56 0
-190 -47 0
-190 -24 0
190 -75 3 74 -60 -59 -78 -55 56 47 24 0
181 182 183 184 185 186 187 188 189 190 0
-191 -5 0
-191 -21 0
-191 37 0
-191 -46 0
-191 -22 0
-191 13 0
-191 42 0
-191 73 0
-191 -18 0
-191 79 0
191 5 21 -37 46 22 -13 -42 -73 18 -79 0
-192 59 0
-192 -69 0
-192 38 0
-192 -8 0
-192 -5 0
-192 25 0
-192 -56 0
-192 48 0
-192 -92 0
-192 61 0
192 -59 69 -38 8 5 -25 56 -48 92 -61 0
-193 99 0
-193 37 0
-193 -46 0
-193 73 0
-193 -33 0
-193 -42 0
-193 55 0
-193 84 0
-193 30 0
-193 92 0
193 -99 -37 46 -73 33 42 -55 -84 -30 -92 0
-194 90 0
-194 42 0
-194 -11 0
-194 93 0
-194 -23 0
-194 9 0
-194 89 0
-194 -79 0
-194 6 0
-194 99 0
194 -90 -42 11 -93 23 -9 -89 79 -6 -99 0
-195 33 0
-195 84 0
-195 -14 0
-195 18 0
-195 98 0
-195 -21 0
-195 -23 0
-195 95 0
-195 86 0
-195 -50 0
195 -33 -84 14 -18 -98 21 23 -95 -86 50 0
-196 -30 0
-196 35 0
-196 -63 0
-196 -71 0
-196 16 0
-196 -8 0
-196 -48 0
-196 -41 0
-196 83 0
-196 -80 0
196 30 -35 63 71 -16 8 48 41 -83 80 0
-197 89 0
-197 41 0
-197 -27 0
-197 28 0
-197 -65 0
-197 76 0
-197 -37 0
-197 46 0
-197 39 0
-197 53 0
197 -89 -41 27 -28 65 -76 37 -46 -39 -53 0
-198 35 0
-198 83 0
-198 -12 0
-198 86 0
-198 -82 0
-198 26 0
-198 2 0
-198 78 0
-198 -50 0
-198 46 0
198 -35 -83 12 -86 82 -26 -2 -78 50 -46 0
-199 -80 0
-199 -39 0
-199 -17 0
-199 -15 0
-199 75 0
-199 5 0
-199 -84 0
-199 -61 0
-199 18 0
-199 -73 0
199 80 39 17 15 -75 -5 84 61 -18 73 0
-200 -27 0
-200 67 0
-200 70 0
-200 14 0
-200 -1 0
-200 -45 0
-200 38 0
-200 75 0
-200 -77 0
-200 78 0
200 27 -67 -70 -14 1 45 -38 -75 77 -78 0
191 192 193 194 195 196 197 198 199 200 0
